tsp_instances/TSP50/instance35.tsp
NODE_COORD_SECTION
0 54 161
1 41 120
2 69 142
3 74 18
4 170 87
5 142 49
6 159 113
7 33 73
8 83 30
9 60 185
10 117 162
11 107 142
12 97 147
13 176 42
14 40 97
15 20 91
16 90 154
17 90 109
18 187 171
19 103 53
20 108 55
21 143 78
22 91 36
23 147 32
24 80 64
25 167 22
26 80 114
27 17 186
28 151 162
29 22 162
30 32 36
31 119 144
32 110 176
33 139 59
34 146 89
35 89 154
36 182 67
37 184 0
38 145 68
39 63 52
40 162 190
41 100 16
42 185 23
43 73 174
44 66 110
45 165 133
46 68 10
47 78 83
48 178 38
49 64 41
