tsp_instances/TSP50/instance35.opt.tour
TOUR_SECTION
1
3
36
17
13
12
32
11
33
29
41
19
46
7
5
37
14
49
43
38
26
24
6
34
39
22
35
18
27
45
48
25
21
20
23
9
42
4
47
50
40
31
8
16
15
2
30
28
10
44
-1